# Objective value = 4
A_0_0 1.0130102040816324e-01
A_1_0 -1.6576530612244864e-01
A_1_1 2.3204591149524842e-01
A_2_0 6.9989795918367237e-01
A_2_1 -1.0443324150903355e+00
A_2_2 -2.4691315240739023e-01
A_3_0 2.6326530612244975e-01
A_3_1 7.3673469387754864e-01
A_3_2 5.1019976202911332e-01
A_3_3 7.7105512206806814e-01
z1_1_0 1.0130102040816324e-01
z2_1_0 8.5748890156408963e-01
z3_1_0 1.4251109843591037e-01
z4_1_0 8.9869897959183676e-01
z11_1_0 0
z22_1_0 0
z33_1_0 0
z44_1_0 0
z1_1_1 1.0130102040816324e-01
z2_1_1 8.5748890156408963e-01
z3_1_1 1.4251109843591037e-01
z4_1_1 8.9869897959183676e-01
z11_1_1 0
z22_1_1 0
z33_1_1 0
z44_1_1 0
z1_1_2 1.0130102040816324e-01
z2_1_2 8.5748890156408963e-01
z3_1_2 1.4251109843591037e-01
z4_1_2 8.9869897959183676e-01
z11_1_2 0
z22_1_2 0
z33_1_2 0
z44_1_2 0
z1_1_3 1.0130102040816324e-01
z2_1_3 8.5748890156408963e-01
z3_1_3 1.4251109843591037e-01
z4_1_3 8.9869897959183676e-01
z11_1_3 0
z22_1_3 0
z33_1_3 0
z44_1_3 0
z1_1_4 1.0130102040816324e-01
z2_1_4 8.5748890156408963e-01
z3_1_4 1.4251109843591037e-01
z4_1_4 8.9869897959183676e-01
z11_1_4 0
z22_1_4 0
z33_1_4 0
z44_1_4 0
z1_1_5 1.0130102040816324e-01
z2_1_5 8.5748890156408963e-01
z3_1_5 1.4251109843591037e-01
z4_1_5 8.9869897959183676e-01
z11_1_5 0
z22_1_5 0
z33_1_5 0
z44_1_5 0
z1_1_6 1.0130102040816324e-01
z2_1_6 8.5748890156408963e-01
z3_1_6 1.4251109843591037e-01
z4_1_6 8.9869897959183676e-01
z11_1_6 0
z22_1_6 0
z33_1_6 0
z44_1_6 0
z1_1_7 1.0130102040816324e-01
z2_1_7 8.5748890156408963e-01
z3_1_7 1.4251109843591037e-01
z4_1_7 8.9869897959183676e-01
z11_1_7 0
z22_1_7 0
z33_1_7 0
z44_1_7 0
z1_1_8 1.0130102040816324e-01
z2_1_8 8.5748890156408963e-01
z3_1_8 1.4251109843591037e-01
z4_1_8 8.9869897959183676e-01
z11_1_8 0
z22_1_8 0
z33_1_8 0
z44_1_8 0
z1_1_9 1.0130102040816324e-01
z2_1_9 8.5748890156408963e-01
z3_1_9 1.4251109843591037e-01
z4_1_9 8.9869897959183676e-01
z11_1_9 0
z22_1_9 0
z33_1_9 0
z44_1_9 0
z1_1_10 1.0130102040816324e-01
z2_1_10 8.5748890156408963e-01
z3_1_10 1.4251109843591037e-01
z4_1_10 8.9869897959183676e-01
z11_1_10 0
z22_1_10 0
z33_1_10 0
z44_1_10 0
z1_1_11 1.0130102040816324e-01
z2_1_11 8.5748890156408963e-01
z3_1_11 1.4251109843591037e-01
z4_1_11 8.9869897959183676e-01
z11_1_11 0
z22_1_11 0
z33_1_11 0
z44_1_11 0
z1_1_12 1.0130102040816324e-01
z2_1_12 8.5748890156408963e-01
z3_1_12 1.4251109843591037e-01
z4_1_12 8.9869897959183676e-01
z11_1_12 0
z22_1_12 0
z33_1_12 0
z44_1_12 0
z1_1_13 1.0130102040816324e-01
z2_1_13 8.5748890156408963e-01
z3_1_13 1.4251109843591037e-01
z4_1_13 8.9869897959183676e-01
z11_1_13 0
z22_1_13 0
z33_1_13 0
z44_1_13 0
z1_1_14 1.0130102040816324e-01
z2_1_14 8.5748890156408963e-01
z3_1_14 1.4251109843591037e-01
z4_1_14 8.9869897959183676e-01
z11_1_14 0
z22_1_14 0
z33_1_14 0
z44_1_14 0
z1_1_15 1.0130102040816324e-01
z2_1_15 8.5748890156408963e-01
z3_1_15 1.4251109843591037e-01
z4_1_15 8.9869897959183676e-01
z11_1_15 0
z22_1_15 0
z33_1_15 0
z44_1_15 0
z1_1_16 1.0130102040816324e-01
z2_1_16 8.5748890156408963e-01
z3_1_16 1.4251109843591037e-01
z4_1_16 8.9869897959183676e-01
z11_1_16 0
z22_1_16 0
z33_1_16 0
z44_1_16 0
z1_1_17 1.0130102040816324e-01
z2_1_17 8.5748890156408963e-01
z3_1_17 1.4251109843591037e-01
z4_1_17 8.9869897959183676e-01
z11_1_17 0
z22_1_17 0
z33_1_17 0
z44_1_17 0
z1_1_18 1.0130102040816324e-01
z2_1_18 8.5748890156408963e-01
z3_1_18 1.4251109843591037e-01
z4_1_18 8.9869897959183676e-01
z11_1_18 0
z22_1_18 0
z33_1_18 0
z44_1_18 0
z1_1_19 1.0130102040816324e-01
z2_1_19 8.5748890156408963e-01
z3_1_19 1.4251109843591037e-01
z4_1_19 8.9869897959183676e-01
z11_1_19 0
z22_1_19 0
z33_1_19 0
z44_1_19 0
z1_1_20 1.0130102040816324e-01
z2_1_20 8.5748890156408963e-01
z3_1_20 1.4251109843591037e-01
z4_1_20 8.9869897959183676e-01
z11_1_20 0
z22_1_20 0
z33_1_20 0
z44_1_20 0
zint_1_0 0
zint_1_1 0
zint_1_2 0
zint_1_3 0
zint_1_4 0
zint_1_5 0
zint_1_6 0
zint_1_7 0
zint_1_8 0
zint_1_9 0
zint_1_10 0
zint_1_11 0
zint_1_12 0
zint_1_13 0
zint_1_14 0
zint_1_15 0
zint_1_16 0
zint_1_17 0
zint_1_18 0
zint_1_19 0
zint_1_20 0
zint_1_21 0
zint_1_22 0
zint_1_23 0
zint_1_24 0
zint_1_25 0
zint_1_26 0
zint_1_27 0
zint_1_28 0
zint_1_29 0
zint_1_30 0
zint_1_31 0
zint_1_32 0
zint_1_33 0
zint_1_34 0
zint_1_35 0
zint_1_36 0
zint_1_37 0
zint_1_38 0
zint_1_39 0
zint_1_40 0
zint_1_41 0
zint_1_42 0
zint_1_43 0
zint_1_44 0
zint_1_45 0
zint_1_46 0
zint_1_47 0
zint_1_48 0
zint_1_49 0
zint_1_50 0
zint_1_51 0
zint_1_52 0
zint_1_53 0
zint_1_54 0
zint_1_55 0
zint_1_56 0
zint_1_57 0
zint_1_58 0
zint_1_59 0
zint_1_60 0
zint_1_61 0
zint_1_62 0
zint_1_63 0
zint_1_64 0
zint_1_65 0
zint_1_66 0
zint_1_67 0
zint_1_68 0
zint_1_69 0
zint_1_70 0
zint_1_71 0
zint_1_72 0
zint_1_73 0
zint_1_74 0
zint_1_75 0
zint_1_76 0
zint_1_77 0
zint_1_78 0
zint_1_79 0
zint_1_80 0
zint_1_81 0
zint_1_82 0
zint_1_83 0
zint_1_84 0
zint_1_85 0
zint_1_86 0
zint_1_87 0
zint_1_88 0
zint_1_89 0
zint_1_90 0
zint_1_91 0
zint_1_92 0
zint_1_93 0
zint_1_94 0
zint_1_95 0
zint_1_96 0
zint_1_97 0
zint_1_98 0
zint_1_99 0
zint_1_100 0
zint_1_101 0
zint_1_102 0
zint_1_103 0
zint_1_104 0
zint_1_105 0
zint_1_106 0
zint_1_107 0
zint_1_108 0
zint_1_109 0
zint_1_110 0
zint_1_111 0
zint_1_112 0
zint_1_113 0
zint_1_114 0
zint_1_115 0
zint_1_116 0
zint_1_117 0
zint_1_118 0
zint_1_119 0
zint_1_120 0
zint_1_121 0
zint_1_122 0
zint_1_123 0
zint_1_124 0
zint_1_125 0
zint_1_126 0
zint_1_127 0
zint_1_128 0
zint_1_129 0
zint_1_130 0
zint_1_131 0
zint_1_132 0
zint_1_133 0
zint_1_134 0
zint_1_135 0
zint_1_136 0
zint_1_137 0
zint_1_138 0
zint_1_139 0
zint_1_140 0
zint_1_141 0
zint_1_142 0
zint_1_143 0
zint_1_144 0
zint_1_145 0
zint_1_146 0
zint_1_147 0
zint_1_148 0
zint_1_149 0
zint_1_150 0
zint_1_151 0
zint_1_152 0
zint_1_153 0
zint_1_154 0
zint_1_155 0
zint_1_156 0
zint_1_157 0
zint_1_158 0
zint_1_159 0
zint_1_160 0
zint_1_161 0
zint_1_162 0
zint_1_163 0
zint_1_164 0
zint_1_165 0
zint_1_166 0
zint_1_167 0
zint_1_168 0
zint_1_169 0
zint_1_170 0
zint_1_171 0
zint_1_172 0
zint_1_173 0
zint_1_174 0
zint_1_175 0
zint_1_176 0
zint_1_177 0
zint_1_178 0
zint_1_179 0
zint_1_180 0
zint_1_181 0
zint_1_182 0
zint_1_183 0
zint_1_184 0
zint_1_185 0
zint_1_186 0
zint_1_187 0
zint_1_188 0
zint_1_189 0
zint_1_190 0
zint_1_191 0
zint_1_192 0
zint_1_193 0
zint_1_194 0
zint_1_195 0
zint_1_196 0
zint_1_197 0
zint_1_198 0
zint_1_199 0
zint_1_200 0
zint_1_201 0
zint_1_202 0
zint_1_203 0
zint_1_204 0
zint_1_205 0
zint_1_206 0
zint_1_207 0
zint_1_208 0
zint_1_209 0
zint_1_210 0
zint_1_211 0
zint_1_212 0
zint_1_213 0
zint_1_214 0
zint_1_215 0
zint_1_216 0
zint_1_217 0
zint_1_218 0
zint_1_219 0
zint_1_220 0
zint_1_221 0
zint_1_222 0
zint_1_223 0
zint_1_224 0
zint_1_225 0
zint_1_226 0
zint_1_227 0
zint_1_228 0
zint_1_229 0
zint_1_230 0
zint_1_231 0
zint_1_232 0
zint_1_233 0
zint_1_234 0
zint_1_235 0
zint_1_236 0
zint_1_237 0
zint_1_238 0
zint_1_239 0
zint_1_240 0
zint_1_241 0
zint_1_242 0
zint_1_243 0
zint_1_244 0
zint_1_245 0
zint_1_246 0
zint_1_247 0
zint_1_248 0
zint_1_249 0
zint_1_250 0
zint_1_251 0
zint_1_252 0
zint_1_253 0
zint_1_254 0
zint_1_255 0
zint_1_256 0
zint_1_257 0
zint_1_258 0
zint_1_259 0
zint_1_260 0
zint_1_261 0
zint_1_262 0
zint_1_263 0
zint_1_264 0
zint_1_265 0
zint_1_266 0
zint_1_267 0
zint_1_268 0
zint_1_269 0
zint_1_270 0
zint_1_271 0
zint_1_272 0
zint_1_273 0
zint_1_274 0
zint_1_275 0
zint_1_276 0
zint_1_277 0
zint_1_278 0
zint_1_279 0
zint_1_280 0
zint_1_281 0
zint_1_282 0
zint_1_283 0
zint_1_284 0
zint_1_285 0
zint_1_286 0
zint_1_287 0
zint_1_288 0
zint_1_289 0
zint_1_290 0
zint_1_291 0
zint_1_292 0
zint_1_293 0
zint_1_294 0
zint_1_295 0
zint_1_296 0
zint_1_297 0
zint_1_298 0
zint_1_299 0
zint_1_300 0
zint_1_301 0
zint_1_302 0
zint_1_303 0
zint_1_304 0
zint_1_305 0
zint_1_306 0
zint_1_307 0
zint_1_308 0
zint_1_309 0
zint_1_310 0
zint_1_311 0
zint_1_312 0
zint_1_313 0
zint_1_314 0
zint_1_315 0
zint_1_316 0
zint_1_317 0
zint_1_318 0
zint_1_319 0
zint_1_320 0
zint_1_321 0
zint_1_322 0
zint_1_323 0
zint_1_324 0
zint_1_325 0
zint_1_326 0
zint_1_327 0
zint_1_328 0
zint_1_329 0
zint_1_330 0
zint_1_331 0
zint_1_332 0
zint_1_333 0
zint_1_334 0
zint_1_335 0
zint_1_336 0
zint_1_337 0
zint_1_338 0
zint_1_339 0
zint_1_340 0
zint_1_341 0
zint_1_342 0
zint_1_343 0
zint_1_344 0
zint_1_345 0
zint_1_346 0
zint_1_347 0
zint_1_348 0
zint_1_349 0
zint_1_350 0
zint_1_351 0
zint_1_352 0
zint_1_353 0
zint_1_354 0
zint_1_355 0
zint_1_356 0
zint_1_357 0
zint_1_358 0
zint_1_359 0
zint_1_360 0
normint_1 0
norm1_1 1.0130102040816324e-01
norm2_1 8.5748890156408963e-01
norm3_1 1.4251109843591037e-01
norm4_1 8.9869897959183676e-01
norm11_1 0
norm22_1 0
norm33_1 0
norm44_1 0
z1_2_0 1.0130102040816330e-01
z2_2_0 8.5748890156408963e-01
z3_2_0 1.4251109843591037e-01
z4_2_0 8.9869897959183676e-01
z11_2_0 0
z22_2_0 0
z33_2_0 0
z44_2_0 0
z1_2_1 1.0130102040816330e-01
z2_2_1 8.5748890156408963e-01
z3_2_1 1.4251109843591037e-01
z4_2_1 8.9869897959183676e-01
z11_2_1 0
z22_2_1 0
z33_2_1 0
z44_2_1 0
z1_2_2 1.0130102040816330e-01
z2_2_2 8.5748890156408963e-01
z3_2_2 1.4251109843591037e-01
z4_2_2 8.9869897959183676e-01
z11_2_2 0
z22_2_2 0
z33_2_2 0
z44_2_2 0
z1_2_3 1.0130102040816330e-01
z2_2_3 8.5748890156408963e-01
z3_2_3 1.4251109843591037e-01
z4_2_3 8.9869897959183676e-01
z11_2_3 0
z22_2_3 0
z33_2_3 0
z44_2_3 0
z1_2_4 1.0130102040816330e-01
z2_2_4 8.5748890156408963e-01
z3_2_4 1.4251109843591037e-01
z4_2_4 8.9869897959183676e-01
z11_2_4 0
z22_2_4 0
z33_2_4 0
z44_2_4 0
z1_2_5 1.0130102040816330e-01
z2_2_5 8.5748890156408963e-01
z3_2_5 1.4251109843591037e-01
z4_2_5 8.9869897959183676e-01
z11_2_5 0
z22_2_5 0
z33_2_5 0
z44_2_5 0
z1_2_6 1.0130102040816330e-01
z2_2_6 8.5748890156408963e-01
z3_2_6 1.4251109843591037e-01
z4_2_6 8.9869897959183676e-01
z11_2_6 0
z22_2_6 0
z33_2_6 0
z44_2_6 0
z1_2_7 1.0130102040816330e-01
z2_2_7 8.5748890156408963e-01
z3_2_7 1.4251109843591037e-01
z4_2_7 8.9869897959183676e-01
z11_2_7 0
z22_2_7 0
z33_2_7 0
z44_2_7 0
z1_2_8 1.0130102040816330e-01
z2_2_8 8.5748890156408963e-01
z3_2_8 1.4251109843591037e-01
z4_2_8 8.9869897959183676e-01
z11_2_8 0
z22_2_8 0
z33_2_8 0
z44_2_8 0
z1_2_9 1.0130102040816330e-01
z2_2_9 8.5748890156408963e-01
z3_2_9 1.4251109843591037e-01
z4_2_9 8.9869897959183676e-01
z11_2_9 0
z22_2_9 0
z33_2_9 0
z44_2_9 0
z1_2_10 1.0130102040816330e-01
z2_2_10 8.5748890156408963e-01
z3_2_10 1.4251109843591037e-01
z4_2_10 8.9869897959183676e-01
z11_2_10 0
z22_2_10 0
z33_2_10 0
z44_2_10 0
z1_2_11 1.0130102040816330e-01
z2_2_11 8.5748890156408963e-01
z3_2_11 1.4251109843591037e-01
z4_2_11 8.9869897959183676e-01
z11_2_11 0
z22_2_11 0
z33_2_11 0
z44_2_11 0
z1_2_12 1.0130102040816330e-01
z2_2_12 8.5748890156408963e-01
z3_2_12 1.4251109843591037e-01
z4_2_12 8.9869897959183676e-01
z11_2_12 0
z22_2_12 0
z33_2_12 0
z44_2_12 0
z1_2_13 1.0130102040816330e-01
z2_2_13 8.5748890156408963e-01
z3_2_13 1.4251109843591037e-01
z4_2_13 8.9869897959183676e-01
z11_2_13 0
z22_2_13 0
z33_2_13 0
z44_2_13 0
z1_2_14 1.0130102040816330e-01
z2_2_14 8.5748890156408963e-01
z3_2_14 1.4251109843591037e-01
z4_2_14 8.9869897959183676e-01
z11_2_14 0
z22_2_14 0
z33_2_14 0
z44_2_14 0
z1_2_15 1.0130102040816330e-01
z2_2_15 8.5748890156408963e-01
z3_2_15 1.4251109843591037e-01
z4_2_15 8.9869897959183676e-01
z11_2_15 0
z22_2_15 0
z33_2_15 0
z44_2_15 0
z1_2_16 1.0130102040816330e-01
z2_2_16 8.5748890156408963e-01
z3_2_16 1.4251109843591037e-01
z4_2_16 8.9869897959183676e-01
z11_2_16 0
z22_2_16 0
z33_2_16 0
z44_2_16 0
z1_2_17 1.0130102040816330e-01
z2_2_17 8.5748890156408963e-01
z3_2_17 1.4251109843591037e-01
z4_2_17 8.9869897959183676e-01
z11_2_17 0
z22_2_17 0
z33_2_17 0
z44_2_17 0
z1_2_18 1.0130102040816330e-01
z2_2_18 8.5748890156408963e-01
z3_2_18 1.4251109843591037e-01
z4_2_18 8.9869897959183676e-01
z11_2_18 0
z22_2_18 0
z33_2_18 0
z44_2_18 0
z1_2_19 1.0130102040816330e-01
z2_2_19 8.5748890156408963e-01
z3_2_19 1.4251109843591037e-01
z4_2_19 8.9869897959183676e-01
z11_2_19 0
z22_2_19 0
z33_2_19 0
z44_2_19 0
z1_2_20 1.0130102040816330e-01
z2_2_20 8.5748890156408963e-01
z3_2_20 1.4251109843591037e-01
z4_2_20 8.9869897959183676e-01
z11_2_20 0
z22_2_20 0
z33_2_20 0
z44_2_20 0
zint_2_0 0
zint_2_1 0
zint_2_2 0
zint_2_3 0
zint_2_4 0
zint_2_5 0
zint_2_6 0
zint_2_7 0
zint_2_8 0
zint_2_9 0
zint_2_10 0
zint_2_11 0
zint_2_12 0
zint_2_13 0
zint_2_14 0
zint_2_15 0
zint_2_16 0
zint_2_17 0
zint_2_18 0
zint_2_19 0
zint_2_20 0
zint_2_21 0
zint_2_22 0
zint_2_23 0
zint_2_24 0
zint_2_25 0
zint_2_26 0
zint_2_27 0
zint_2_28 0
zint_2_29 0
zint_2_30 0
zint_2_31 0
zint_2_32 0
zint_2_33 0
zint_2_34 0
zint_2_35 0
zint_2_36 0
zint_2_37 0
zint_2_38 0
zint_2_39 0
zint_2_40 0
zint_2_41 0
zint_2_42 0
zint_2_43 0
zint_2_44 0
zint_2_45 0
zint_2_46 0
zint_2_47 0
zint_2_48 0
zint_2_49 0
zint_2_50 0
zint_2_51 0
zint_2_52 0
zint_2_53 0
zint_2_54 0
zint_2_55 0
zint_2_56 0
zint_2_57 0
zint_2_58 0
zint_2_59 0
zint_2_60 0
zint_2_61 0
zint_2_62 0
zint_2_63 0
zint_2_64 0
zint_2_65 0
zint_2_66 0
zint_2_67 0
zint_2_68 0
zint_2_69 0
zint_2_70 0
zint_2_71 0
zint_2_72 0
zint_2_73 0
zint_2_74 0
zint_2_75 0
zint_2_76 0
zint_2_77 0
zint_2_78 0
zint_2_79 0
zint_2_80 0
zint_2_81 0
zint_2_82 0
zint_2_83 0
zint_2_84 0
zint_2_85 0
zint_2_86 0
zint_2_87 0
zint_2_88 0
zint_2_89 0
zint_2_90 0
zint_2_91 0
zint_2_92 0
zint_2_93 0
zint_2_94 0
zint_2_95 0
zint_2_96 0
zint_2_97 0
zint_2_98 0
zint_2_99 0
zint_2_100 0
zint_2_101 0
zint_2_102 0
zint_2_103 0
zint_2_104 0
zint_2_105 0
zint_2_106 0
zint_2_107 0
zint_2_108 0
zint_2_109 0
zint_2_110 0
zint_2_111 0
zint_2_112 0
zint_2_113 0
zint_2_114 0
zint_2_115 0
zint_2_116 0
zint_2_117 0
zint_2_118 0
zint_2_119 0
zint_2_120 0
zint_2_121 0
zint_2_122 0
zint_2_123 0
zint_2_124 0
zint_2_125 0
zint_2_126 0
zint_2_127 0
zint_2_128 0
zint_2_129 0
zint_2_130 0
zint_2_131 0
zint_2_132 0
zint_2_133 0
zint_2_134 0
zint_2_135 0
zint_2_136 0
zint_2_137 0
zint_2_138 0
zint_2_139 0
zint_2_140 0
zint_2_141 0
zint_2_142 0
zint_2_143 0
zint_2_144 0
zint_2_145 0
zint_2_146 0
zint_2_147 0
zint_2_148 0
zint_2_149 0
zint_2_150 0
zint_2_151 0
zint_2_152 0
zint_2_153 0
zint_2_154 0
zint_2_155 0
zint_2_156 0
zint_2_157 0
zint_2_158 0
zint_2_159 0
zint_2_160 0
zint_2_161 0
zint_2_162 0
zint_2_163 0
zint_2_164 0
zint_2_165 0
zint_2_166 0
zint_2_167 0
zint_2_168 0
zint_2_169 0
zint_2_170 0
zint_2_171 0
zint_2_172 0
zint_2_173 0
zint_2_174 0
zint_2_175 0
zint_2_176 0
zint_2_177 0
zint_2_178 0
zint_2_179 0
zint_2_180 0
zint_2_181 0
zint_2_182 0
zint_2_183 0
zint_2_184 0
zint_2_185 0
zint_2_186 0
zint_2_187 0
zint_2_188 0
zint_2_189 0
zint_2_190 0
zint_2_191 0
zint_2_192 0
zint_2_193 0
zint_2_194 0
zint_2_195 0
zint_2_196 0
zint_2_197 0
zint_2_198 0
zint_2_199 0
zint_2_200 0
zint_2_201 0
zint_2_202 0
zint_2_203 0
zint_2_204 0
zint_2_205 0
zint_2_206 0
zint_2_207 0
zint_2_208 0
zint_2_209 0
zint_2_210 0
zint_2_211 0
zint_2_212 0
zint_2_213 0
zint_2_214 0
zint_2_215 0
zint_2_216 0
zint_2_217 0
zint_2_218 0
zint_2_219 0
zint_2_220 0
zint_2_221 0
zint_2_222 0
zint_2_223 0
zint_2_224 0
zint_2_225 0
zint_2_226 0
zint_2_227 0
zint_2_228 0
zint_2_229 0
zint_2_230 0
zint_2_231 0
zint_2_232 0
zint_2_233 0
zint_2_234 0
zint_2_235 0
zint_2_236 0
zint_2_237 0
zint_2_238 0
zint_2_239 0
zint_2_240 0
zint_2_241 0
zint_2_242 0
zint_2_243 0
zint_2_244 0
zint_2_245 0
zint_2_246 0
zint_2_247 0
zint_2_248 0
zint_2_249 0
zint_2_250 0
zint_2_251 0
zint_2_252 0
zint_2_253 0
zint_2_254 0
zint_2_255 0
zint_2_256 0
zint_2_257 0
zint_2_258 0
zint_2_259 0
zint_2_260 0
zint_2_261 0
zint_2_262 0
zint_2_263 0
zint_2_264 0
zint_2_265 0
zint_2_266 0
zint_2_267 0
zint_2_268 0
zint_2_269 0
zint_2_270 0
zint_2_271 0
zint_2_272 0
zint_2_273 0
zint_2_274 0
zint_2_275 0
zint_2_276 0
zint_2_277 0
zint_2_278 0
zint_2_279 0
zint_2_280 0
zint_2_281 0
zint_2_282 0
zint_2_283 0
zint_2_284 0
zint_2_285 0
zint_2_286 0
zint_2_287 0
zint_2_288 0
zint_2_289 0
zint_2_290 0
zint_2_291 0
zint_2_292 0
zint_2_293 0
zint_2_294 0
zint_2_295 0
zint_2_296 0
zint_2_297 0
zint_2_298 0
zint_2_299 0
zint_2_300 0
zint_2_301 0
zint_2_302 0
zint_2_303 0
zint_2_304 0
zint_2_305 0
zint_2_306 0
zint_2_307 0
zint_2_308 0
zint_2_309 0
zint_2_310 0
zint_2_311 0
zint_2_312 0
zint_2_313 0
zint_2_314 0
zint_2_315 0
zint_2_316 0
zint_2_317 0
zint_2_318 0
zint_2_319 0
zint_2_320 0
zint_2_321 0
zint_2_322 0
zint_2_323 0
zint_2_324 0
zint_2_325 0
zint_2_326 0
zint_2_327 0
zint_2_328 0
zint_2_329 0
zint_2_330 0
zint_2_331 0
zint_2_332 0
zint_2_333 0
zint_2_334 0
zint_2_335 0
zint_2_336 0
zint_2_337 0
zint_2_338 0
zint_2_339 0
zint_2_340 0
zint_2_341 0
zint_2_342 0
zint_2_343 0
zint_2_344 0
zint_2_345 0
zint_2_346 0
zint_2_347 0
zint_2_348 0
zint_2_349 0
zint_2_350 0
zint_2_351 0
zint_2_352 0
zint_2_353 0
zint_2_354 0
zint_2_355 0
zint_2_356 0
zint_2_357 0
zint_2_358 0
zint_2_359 0
zint_2_360 0
normint_2 0
norm1_2 1.0130102040816330e-01
norm2_2 8.5748890156408963e-01
norm3_2 1.4251109843591037e-01
norm4_2 8.9869897959183676e-01
norm11_2 0
norm22_2 0
norm33_2 0
norm44_2 0
